40216
0 0 0 1 0 1 0 0 0 1 1 1 1 0 1 1 0 1 1 1 0 1 0 0 1 1 0 1 1 1 
18 19 21 27 21 12 15 27 18 28 29 28 10 3 28 18 3 10 27 27 18 21 5 24 10 18 27 19 29 21 19 19 19 21 27 12 14 9 24 15 18 9 12 29 9 19 3 21 19 14 24 24 24 21 9 12 11 9 18 25 29 17 18 9 3 11 5 14 28 25 18 12 19 9 5 10 10 5 9 24 10 17 9 25 29 10 19 5 27 25 28 19 25 25 5 3 11 12 17 28 28 15 25 18 29 24 29 24 27 3 19 29 27 12 12 9 28 25 17 9 9 11 17 19 9 21 21 11 19 17 28 24 25 10 5 9 3 3 28 10 12 27 11 11 25 5 24 15 27 25 24 17 10 17 3 11 5 15 3 3 3 27 10 24 5 18 5 29 3 21 5 10 28 14 29 21 27 14 29 14 21 21 21 28 12 3 28 3 17 15 15 15 12 29 25 11 25 15 14 14 

Total Run Time: 717276 ms.
